<?xml version = "1.0" encoding="UTF-8" standalone="yes"?>
<CPLEXSolution version="1.2">
 <header
   problemName="mknap3_cut_n4"
   objectiveValue="12462.104166666668"
   solutionTypeValue="1"
   solutionTypeString="basic"
   solutionStatusValue="1"
   solutionStatusString="optimal"
   solutionMethodString="primal"
   primalFeasible="1"
   dualFeasible="1"
   simplexIterations="0"
   writeLevel="1"/>
 <quality
   epRHS="9.9999999999999995e-07"
   epOpt="9.9999999999999995e-07"
   maxPrimalInfeas="0"
   maxDualInfeas="0"
   maxPrimalResidual="9.6922470049776166e-14"
   maxDualResidual="1.1368683772161603e-13"
   maxX="1"
   maxPi="6.5833333333333339"
   maxSlack="102.00416666666666"
   maxRedCost="1780.625"
   kappa="136174.5162524789"/>
 <linearConstraints>
  <constraint name="c0" index="0" status="BS" slack="101.25" dual="-0"/>
  <constraint name="c1" index="1" status="LL" slack="0" dual="3.1875"/>
  <constraint name="c2" index="2" status="BS" slack="102.00416666666666" dual="-0"/>
  <constraint name="c3" index="3" status="BS" slack="76.118749999999991" dual="-0"/>
  <constraint name="c4" index="4" status="BS" slack="58.472916666666663" dual="-0"/>
  <constraint name="c5" index="5" status="BS" slack="77.676041666666663" dual="-0"/>
  <constraint name="c6" index="6" status="BS" slack="87.068749999999994" dual="-0"/>
  <constraint name="c7" index="7" status="BS" slack="68.737500000000011" dual="-0"/>
  <constraint name="c8" index="8" status="BS" slack="16.59375" dual="-0"/>
  <constraint name="c9" index="9" status="LL" slack="0" dual="6.5833333333333339"/>
  <constraint name="cut_1" index="10" status="BS" slack="3.75" dual="-0"/>
  <constraint name="cut_2" index="11" status="BS" slack="4.0406250000000057" dual="-0"/>
  <constraint name="cut_3" index="12" status="BS" slack="6.9958333333333371" dual="-0"/>
  <constraint name="cut_4" index="13" status="BS" slack="6.8812499999999943" dual="-0"/>
 </linearConstraints>
 <variables>
  <variable name="x0" index="0" status="UL" value="1" reducedCost="54.75"/>
  <variable name="x1" index="1" status="UL" value="1" reducedCost="27.083333333333329"/>
  <variable name="x2" index="2" status="LL" value="0" reducedCost="-10.687500000000007"/>
  <variable name="x3" index="3" status="LL" value="0" reducedCost="-149.16666666666669"/>
  <variable name="x4" index="4" status="LL" value="0" reducedCost="-209.66666666666669"/>
  <variable name="x5" index="5" status="LL" value="0" reducedCost="-18.541666666666686"/>
  <variable name="x6" index="6" status="LL" value="0" reducedCost="-139.39583333333334"/>
  <variable name="x7" index="7" status="LL" value="0" reducedCost="-58.437500000000014"/>
  <variable name="x8" index="8" status="UL" value="1" reducedCost="4.9166666666666572"/>
  <variable name="x9" index="9" status="BS" value="0.12916666666666679" reducedCost="0"/>
  <variable name="x10" index="10" status="LL" value="0" reducedCost="-290.875"/>
  <variable name="x11" index="11" status="LL" value="0" reducedCost="-93.666666666666686"/>
  <variable name="x12" index="12" status="LL" value="0" reducedCost="-146"/>
  <variable name="x13" index="13" status="BS" value="0.95937499999999998" reducedCost="0"/>
  <variable name="x14" index="14" status="UL" value="1" reducedCost="390.83333333333331"/>
  <variable name="x15" index="15" status="LL" value="0" reducedCost="-2.9166666666666856"/>
  <variable name="x16" index="16" status="UL" value="1" reducedCost="159.85416666666666"/>
  <variable name="x17" index="17" status="UL" value="1" reducedCost="2.0416666666666643"/>
  <variable name="x18" index="18" status="UL" value="1" reducedCost="21.125"/>
  <variable name="x19" index="19" status="UL" value="1" reducedCost="1455.8333333333333"/>
  <variable name="x20" index="20" status="UL" value="1" reducedCost="1780.625"/>
  <variable name="x21" index="21" status="UL" value="1" reducedCost="482.91666666666663"/>
  <variable name="x22" index="22" status="UL" value="1" reducedCost="498.54166666666663"/>
  <variable name="x23" index="23" status="UL" value="1" reducedCost="29.374999999999972"/>
  <variable name="x24" index="24" status="UL" value="1" reducedCost="49.354166666666657"/>
  <variable name="x25" index="25" status="UL" value="1" reducedCost="67.062499999999986"/>
  <variable name="x26" index="26" status="UL" value="1" reducedCost="108.66666666666666"/>
  <variable name="x27" index="27" status="UL" value="1" reducedCost="246.41666666666666"/>
  <variable name="s0" index="28" status="LL" value="0" reducedCost="0"/>
  <variable name="s1" index="29" status="LL" value="0" reducedCost="-3.1875"/>
  <variable name="s2" index="30" status="LL" value="0" reducedCost="0"/>
  <variable name="s3" index="31" status="LL" value="0" reducedCost="0"/>
  <variable name="s4" index="32" status="LL" value="0" reducedCost="0"/>
  <variable name="s5" index="33" status="LL" value="0" reducedCost="0"/>
  <variable name="s6" index="34" status="LL" value="0" reducedCost="0"/>
  <variable name="s7" index="35" status="LL" value="0" reducedCost="0"/>
  <variable name="s8" index="36" status="LL" value="0" reducedCost="0"/>
  <variable name="s9" index="37" status="LL" value="0" reducedCost="-6.5833333333333339"/>
 </variables>
 <objectiveValues>
  <objective index="0" name="" value="12462.104166666668"/>
 </objectiveValues>
</CPLEXSolution>
